*MODEL INPUT FILE            A     1     1     1     1     0
*FILES              
MODEL          MZCER047
FILEX          CASS0001.MZX                                                                                 
FILEA          CASS0001.MZA                                                                                 
FILET          CASS0001.MZT                                                                                 
SPECIES        MZCER047.SPE ./Genotype/                                                                     
ECOTYPE        MZCER047.ECO ./Genotype/                                                                     
CULTIVAR       MZCER047.CUL ./Genotype/                                                                     
PESTS          MZCER047.PST ./Pest/                                                                         
SOILS          SOIL.SOL     ./Soil/                                                                         
WEATHERW       CASS0001.WTH                                                                                 
OUTPUT         OVERVIEW
*SIMULATION CONTROL 
                   1     1     S 2000135  2150 N X IRRIGATION, GAINESVI 
                   Y     Y     N     N     N     N     N     Y     M
                   M     M     E     R     S     R     R     1     G     R     2     D     0
                   R     R     R     N     M
                   N     Y     Y     1     Y     N     Y     Y     N     N     Y     N     N
!AUTOMATIC MANAGEM  
                   -99     -99   40.  100.   30.   40.   10.
                 30.   50.  100. GS000 IR001  10.0 1.000
                 30.   50.   25. FE001 GS000
                100.     1   20.
                     0     -99  100.    0.
*EXP.DETAILS        
  1CASS0001 MZ CORN FIELD EXPERIMENT                                       
*TREATMENTS         
  1 1 0 0 RAINFED HIGH NITROGEN    
*CULTIVARS          
   MZ CA0001 CASS MZ         
*FIELDS             
   CASS8801 CASS0001   0.0    0. DR000    0. 100.0 00000 SL     180. IB00000009
          29.63000       -82.37000     40.00               1.0  100.   1.0   0.0   -99   -99
*INITIAL CONDITIONS 
   MZ    2000135   100     0  1.00  1.00   0.0  1000  0.80  0.00  100.   15.
      5. 0.086 0.500 0.100
     15. 0.086 0.500 0.100
     30. 0.086 0.500 0.100
     45. 0.086 0.500 0.100
     60. 0.086 0.500 0.100
*PLANTING DETAILS   
   2000135     -99   7.2   7.2     S     R   61.    0.   7.0  -99.  -99. -99.0 -99.0   0.0
*IRRIGATION         
   1.000   30.   75.  -99. GS000 IR001   0.0
   2000150 IR001  20.0
   2000161 IR001  20.0
   2000171 IR001  20.0
   2000181 IR001  20.0
   2000191 IR001  20.0
   2000201 IR001  20.0
   2000211 IR001  20.0
   2000222 IR001  20.0
   2000232 IR001  20.0
   2000242 IR001  20.0
*FERTILIZERS        
   2000212 FE001 AP001   10.   50.   10.    4.    0.    0.   -99
   2000136 FE001 AP001   10.  150.    0.    0.    0.    0.   -99
*RESIDUES           
*CHEMICALS          
*TILLAGE            
*ENVIRONMENT        
*HARVEST            
*SOIL               
 IB00000009  IBSNAT      SL     180. DEFAULT - SHALLOW SANDY LOAM                      
 Generic     Generic      -0.009  -0.099 Generic                                           
 -99    0.13   6.0  0.40   74.  1.00  1.00 IB001 IB001 IB001 -99  
    5.       0.052 0.176 0.359 1.000  -99.  1.61 0.700  10.0  30.0   0.0 0.070  6.50-99.00-99.00-99.00
   15.       0.052 0.176 0.359 1.000  -99.  1.61 0.700  10.0  30.0   0.0 0.070  6.50-99.00-99.00-99.00
   30.       0.052 0.176 0.359 0.638  -99.  1.61 0.660  10.0  30.0   0.0 0.070  6.50-99.00-99.00-99.00
   45.       0.073 0.192 0.360 0.472  -99.  1.61 0.580  10.0  30.0   0.0 0.060  6.50-99.00-99.00-99.00
   60.       0.073 0.192 0.360 0.350  -99.  1.61 0.580  10.0  30.0   0.0 0.060  6.50-99.00-99.00-99.00
                    
    5.-99.00 -99.0 -99.0 -99.0 -99.0 -99.0 -99.0 -99.0 -99.0 -99.0-99.00 -99.0 -99.0 -99.0 -99.0 -99.0  -99.
   15.-99.00 -99.0 -99.0 -99.0 -99.0 -99.0 -99.0 -99.0 -99.0 -99.0-99.00 -99.0 -99.0 -99.0 -99.0 -99.0  -99.
   30.-99.00 -99.0 -99.0 -99.0 -99.0 -99.0 -99.0 -99.0 -99.0 -99.0-99.00 -99.0 -99.0 -99.0 -99.0 -99.0  -99.
   45.-99.00 -99.0 -99.0 -99.0 -99.0 -99.0 -99.0 -99.0 -99.0 -99.0-99.00 -99.0 -99.0 -99.0 -99.0 -99.0  -99.
   60.-99.00 -99.0 -99.0 -99.0 -99.0 -99.0 -99.0 -99.0 -99.0 -99.0-99.00 -99.0 -99.0 -99.0 -99.0 -99.0  -99.
                    
    5.-99.00-99.00-99.00-99.00
   15.-99.00-99.00-99.00-99.00
   30.-99.00-99.00-99.00-99.00
   45.-99.00-99.00-99.00-99.00
   60.-99.00-99.00-99.00-99.00
*CULTIVAR           
CA0001 CASS MZ          IB0001  192.0 0.825 780.0 750.0  8.50 56.59
